Set parameter WLSAccessID
Set parameter WLSSecret
Set parameter LicenseID to value 2604445
Academic license 2604445 - for non-commercial use only - registered to an___@um.edu.mt
Set parameter Seed to value 23
Set parameter TimeLimit to value 14400
Gurobi Optimizer version 12.0.2 build v12.0.2rc0 (linux64 - "Ubuntu 22.04.5 LTS")

CPU model: Intel(R) Core(TM) i5-10400 CPU @ 2.90GHz, instruction set [SSE2|AVX|AVX2]
Thread count: 6 physical cores, 12 logical processors, using up to 12 threads

Non-default parameters:
TimeLimit  14400
Seed  23

Academic license 2604445 - for non-commercial use only - registered to an___@um.edu.mt
Optimize a model with 2347390 rows, 45839 columns and 4832422 nonzeros
Model fingerprint: 0xe915135a
Variable types: 0 continuous, 45839 integer (35707 binary)
Coefficient statistics:
  Matrix range     [1e+00, 4e+01]
  Objective range  [1e-06, 2e-02]
  Bounds range     [1e+00, 3e+02]
  RHS range        [1e+00, 4e+01]
Presolve removed 19835 rows and 15546 columns (presolve time = 5s)...
Presolve removed 19835 rows and 15546 columns (presolve time = 10s)...
Presolve removed 19835 rows and 15546 columns
Presolve time: 11.16s
Presolved: 2327555 rows, 30293 columns, 4757741 nonzeros
Variable types: 0 continuous, 30293 integer (21548 binary)
Deterministic concurrent LP optimizer: primal simplex, dual simplex, and barrier
Showing barrier log only...

Root barrier log...

Ordering time: 0.01s

Barrier statistics:
 Dense cols : 4
 Free vars  : 140
 AA' NZ     : 3.847e+04
 Factor NZ  : 5.542e+04 (roughly 30 MB of memory)
 Factor Ops : 8.208e+06 (less than 1 second per iteration)
 Threads    : 3

                  Objective                Residual
Iter       Primal          Dual         Primal    Dual     Compl     Time
   0  -6.89685973e+05  5.00000000e+00  3.32e+00 1.10e+01  2.71e+01    27s
   1  -2.97376587e+05  7.72647030e+00  1.66e-03 2.43e+01  6.61e+00    27s

Barrier performed 1 iterations in 27.17 seconds (21.34 work units)
Barrier solve interrupted - model solved by another algorithm

Concurrent spin time: 0.09s

Solved with dual simplex

Root simplex log...

Iteration    Objective       Primal Inf.    Dual Inf.      Time
     938    2.6322517e-03   0.000000e+00   0.000000e+00     27s

Root simplex log...

Iteration    Objective       Primal Inf.    Dual Inf.      Time
     938    2.6322517e-03   0.000000e+00   0.000000e+00     27s

Use crossover to convert LP symmetric solution to basic solution...

Root crossover log...

    3294 PPushes remaining with PInf 0.0000000e+00                30s
       0 PPushes remaining with PInf 0.0000000e+00                34s

  Push phase complete: Pinf 0.0000000e+00, Dinf 1.2076308e-18     34s


Root simplex log...

Iteration    Objective       Primal Inf.    Dual Inf.      Time
    4235    2.6322517e-03   0.000000e+00   0.000000e+00     35s
    4235    2.6322517e-03   0.000000e+00   0.000000e+00     36s

Root relaxation: objective 2.632252e-03, 4235 iterations, 15.95 seconds (4.04 work units)
Total elapsed time = 41.46s (DegenMoves)
Total elapsed time = 48.08s (DegenMoves)
Total elapsed time = 52.69s (DegenMoves)

    Nodes    |    Current Node    |     Objective Bounds      |     Work
 Expl Unexpl |  Obj  Depth IntInf | Incumbent    BestBd   Gap | It/Node Time

     0     0    0.00263    0 1782          -    0.00263      -     -   59s
     0     0    0.00290    0 2969          -    0.00290      -     -  128s
     0     0    0.00290    0 2953          -    0.00290      -     -  163s
     0     0    0.00297    0 2742          -    0.00297      -     -  279s
     0     0    0.00297    0 2751          -    0.00297      -     -  337s
     0     0    0.00316    0 3452          -    0.00316      -     -  434s
     0     0    0.00316    0 3137          -    0.00316      -     -  484s
     0     0    0.00343    0 4896          -    0.00343      -     -  593s
     0     0    0.00343    0 5537          -    0.00343      -     -  640s
     0     0    0.00346    0 5036          -    0.00346      -     -  863s
     0     0    0.00348    0 5907          -    0.00348      -     -  900s
     0     0    0.00358    0 4420          -    0.00358      -     - 1111s
     0     0    0.00358    0 5516          -    0.00358      -     - 1195s
     0     0    0.00367    0 5890          -    0.00367      -     - 1474s
     0     0    0.00367    0 6340          -    0.00367      -     - 1573s
     0     0    0.00371    0 6843          -    0.00371      -     - 1886s
     0     0    0.00371    0 5572          -    0.00371      -     - 2007s
     0     0    0.00382    0 6386          -    0.00382      -     - 2320s
     0     0    0.00382    0 7480          -    0.00382      -     - 2484s
     0     0    0.00382    0 6660          -    0.00382      -     - 2887s
     0     0    0.00382    0 7403          -    0.00382      -     - 3071s
     0     0    0.00394    0 6365          -    0.00394      -     - 3490s
     0     0    0.00395    0 8086          -    0.00395      -     - 3658s
     0     0    0.00395    0 8155          -    0.00395      -     - 4211s
     0     0    0.00397    0 6721          -    0.00397      -     - 4391s
     0     0    0.00398    0 8019          -    0.00398      -     - 4956s
     0     0    0.00398    0 7295          -    0.00398      -     - 5164s
     0     0    0.00398    0 8497          -    0.00398      -     - 5745s
     0     0    0.00400    0 6853          -    0.00400      -     - 5931s
     0     0    0.00400    0 7832          -    0.00400      -     - 6618s
     0     0    0.00400    0 8289          -    0.00400      -     - 6817s
     0     0    0.00400    0 8931          -    0.00400      -     - 7483s
     0     0    0.00401    0 9410          -    0.00401      -     - 7751s
     0     0    0.00401    0 8947          -    0.00401      -     - 8438s
     0     0    0.00401    0 8824          -    0.00401      -     - 8738s
     0     0    0.00401    0 8036          -    0.00401      -     - 9561s
     0     0    0.00401    0 7910          -    0.00401      -     - 9803s
     0     0    0.00402    0 7577          -    0.00402      -     - 10475s
     0     0    0.00404    0 8304          -    0.00404      -     - 10729s
     0     0    0.00404    0 9140          -    0.00404      -     - 11447s
     0     0    0.00406    0 8970          -    0.00406      -     - 11715s
     0     0    0.00406    0 9102          -    0.00406      -     - 12414s
     0     0    0.00406    0 7581          -    0.00406      -     - 12616s
     0     0    0.00406    0 6524          -    0.00406      -     - 13224s
     0     0    0.00406    0 7387          -    0.00406      -     - 13478s
     0     0    0.00406    0 7612          -    0.00406      -     - 14143s
     0     0          -    0               -    0.00406      -     - 14400s

Cutting planes:
  Gomory: 252
  Cover: 2954
  Implied bound: 1456
  Clique: 4248
  MIR: 8455
  StrongCG: 50
  Zero half: 3460
  RLT: 1126
  Relax-and-lift: 3334

Explored 1 nodes (943144 simplex iterations) in 14400.01 seconds (18782.79 work units)
Thread count was 12 (of 12 available processors)

Solution count 0

Time limit reached
Best objective -, best bound 4.064491582707e-03, gap -
No feasible solution found.
